(set-info :smt-lib-version 2.6)
(set-info :category "crafted")
(set-logic QF_FF)
(define-sort FF0 () (_ FiniteField 52435875175126190479447740508185965837690552500527637822603658699938581184513))
(declare-fun b () Bool)
(declare-fun a () Bool)
(declare-fun return_n0 () FF0)
(declare-fun mul_n11 () FF0)
(declare-fun mul_n14 () FF0)
(declare-fun mul_n13 () FF0)
(declare-fun mul_n19 () FF0)
(declare-fun is_zero_n17 () FF0)
(declare-fun mul_n18 () FF0)
(declare-fun mul_n7 () FF0)
(declare-fun mul_n9 () FF0)
(declare-fun mul_n6 () FF0)
(declare-fun mul_n15 () FF0)
(declare-fun a_n2 () FF0)
(declare-fun is_zero_n5 () FF0)
(declare-fun is_zero_inv_n16 () FF0)
(declare-fun mul_n12 () FF0)
(declare-fun mul_n3 () FF0)
(declare-fun b_n1 () FF0)
(declare-fun mul_n8 () FF0)
(declare-fun mul_n10 () FF0)
(declare-fun is_zero_inv_n4 () FF0)
(assert 
  (let ((let0 b))
  (let ((let1 a))
  (let ((let2 (ite let0 let1 let0)))
  (let ((let3 (and let0 let2 let1 let1 let1 let0)))
  (let ((let4 (ite let2 let2 let3)))
  (let ((let5 (=> let4 let3)))
  (let ((let6 (= let3 let4)))
  (let ((let7 (=> let6 let5)))
  (let ((let8 (not let5)))
  (let ((let9 (=> let8 let7)))
  (let ((let10 (or let9 let4)))
  (let ((let11 (and let6 let2)))
  (let ((let12 (=> let11 let7)))
  (let ((let13 (= let12 let10)))
  (let ((let14 (ite let12 let8 let5)))
  (let ((let15 (or let4 let7 let14 let1)))
  (let ((let16 (ite let7 let5 let12)))
  (let ((let17 (and let16 let15 let13)))
  (let ((let18 return_n0))
  (let ((let19 (as ff1 FF0)))
  (let ((let20 (= let19 let18)))
  (let ((let21 (= let20 let17)))
  (let ((let22 (as ff0 FF0)))
  (let ((let23 (= let22 let18)))
  (let ((let24 (or let20 let23)))
  (let ((let25 (and let24 let21)))
  (let ((let26 (as ff52435875175126190479447740508185965837690552500527637822603658699938581184512 FF0)))
  (let ((let27 mul_n11))
  (let ((let28 mul_n14))
  (let ((let29 mul_n13))
  (let ((let30 (ff.add let29 let28 let27 let26)))
  (let ((let31 mul_n19))
  (let ((let32 (ff.mul let31 let30)))
  (let ((let33 (= let32 let18)))
  (let ((let34 is_zero_n17))
  (let ((let35 (ff.mul let34 let26)))
  (let ((let36 (ff.add let35 let19)))
  (let ((let37 mul_n18))
  (let ((let38 (ff.mul let29 let26)))
  (let ((let39 (ff.add let38 let37 let19)))
  (let ((let40 (ff.mul let39 let36)))
  (let ((let41 (= let40 let31)))
  (let ((let42 mul_n7))
  (let ((let43 (ff.mul let42 let26)))
  (let ((let44 (ff.add let29 let43)))
  (let ((let45 mul_n9))
  (let ((let46 (ff.mul let45 let26)))
  (let ((let47 (ff.add let46 let19)))
  (let ((let48 (ff.mul let47 let44)))
  (let ((let49 (= let48 let37)))
  (let ((let50 (as ff2 FF0)))
  (let ((let51 mul_n6))
  (let ((let52 mul_n15))
  (let ((let53 a_n2))
  (let ((let54 is_zero_n5))
  (let ((let55 (ff.add let54 let53 let43 let52 let46 let51 let50)))
  (let ((let56 (ff.mul let34 let55)))
  (let ((let57 (= let56 let22)))
  (let ((let58 is_zero_inv_n16))
  (let ((let59 (ff.mul let58 let55)))
  (let ((let60 (= let59 let36)))
  (let ((let61 (ff.mul let42 let50)))
  (let ((let62 (ff.add let61 let26)))
  (let ((let63 (ff.add let38 let19)))
  (let ((let64 (ff.mul let63 let62)))
  (let ((let65 (= let64 let52)))
  (let ((let66 (ff.mul let27 let26)))
  (let ((let67 (ff.add let66 let19)))
  (let ((let68 (as ff52435875175126190479447740508185965837690552500527637822603658699938581184511 FF0)))
  (let ((let69 (ff.mul let29 let68)))
  (let ((let70 (ff.add let69 let50)))
  (let ((let71 (ff.mul let70 let67)))
  (let ((let72 (= let71 let28)))
  (let ((let73 mul_n12))
  (let ((let74 (ff.mul let73 let45)))
  (let ((let75 (= let74 let29)))
  (let ((let76 mul_n3))
  (let ((let77 b_n1))
  (let ((let78 (ff.add let77 let76)))
  (let ((let79 (ff.mul let51 let26)))
  (let ((let80 (ff.mul let54 let68)))
  (let ((let81 mul_n8))
  (let ((let82 (ff.add let81 let80 let79 let19)))
  (let ((let83 (ff.mul let82 let78)))
  (let ((let84 (= let83 let73)))
  (let ((let85 (ff.mul let54 let26)))
  (let ((let86 (ff.add let85 let79 let19)))
  (let ((let87 mul_n10))
  (let ((let88 (ff.mul let87 let86)))
  (let ((let89 (= let88 let27)))
  (let ((let90 (ff.mul let42 let45)))
  (let ((let91 (= let90 let87)))
  (let ((let92 (ff.mul let82 let42)))
  (let ((let93 (= let92 let45)))
  (let ((let94 (ff.add let54 let51)))
  (let ((let95 (ff.mul let54 let50)))
  (let ((let96 (ff.mul let95 let94)))
  (let ((let97 (= let96 let81)))
  (let ((let98 (ff.add let85 let19)))
  (let ((let99 (ff.mul let94 let98)))
  (let ((let100 (= let99 let42)))
  (let ((let101 (ff.add let77 let85 let76)))
  (let ((let102 (ff.mul let78 let101)))
  (let ((let103 (= let102 let51)))
  (let ((let104 (as ff6 FF0)))
  (let ((let105 (ff.mul let76 let26)))
  (let ((let106 (as ff52435875175126190479447740508185965837690552500527637822603658699938581184510 FF0)))
  (let ((let107 (ff.mul let77 let106)))
  (let ((let108 (ff.mul let53 let106)))
  (let ((let109 (ff.add let108 let107 let105 let104)))
  (let ((let110 (ff.mul let54 let109)))
  (let ((let111 (= let110 let22)))
  (let ((let112 is_zero_inv_n4))
  (let ((let113 (ff.mul let112 let109)))
  (let ((let114 (= let113 let98)))
  (let ((let115 (ff.mul let77 let26)))
  (let ((let116 (ff.add let115 let53)))
  (let ((let117 (ff.mul let77 let116)))
  (let ((let118 (= let117 let76)))
  (let ((let119 (and let118 let114 let111 let103 let100 let97 let93 let91 let89 let84 let75 let72 let65 let60 let57 let49 let41 let33)))
  (let ((let120 (ite let0 let19 let22)))
  (let ((let121 (= let77 let120)))
  (let ((let122 (ite let1 let19 let22)))
  (let ((let123 (= let53 let122)))
  (let ((let124 (and let123 let121)))
  (let ((let125 (and let124 let119)))
  (let ((let126 (=> let125 let25)))
  (let ((let127 (not let126)))
  let127
))))))))))))))))))))))))))))))))))))))))))))))))))))))))))))))))))))))))))))))))))))))))))))))))))))))))))))))))))))))))))))))))
)
(check-sat)
